(set-logic ALL)
(declare-const GEN1 Int)
(declare-const GEN2 Int)
(declare-const BAV3 Bool)
(declare-const BAV4 Bool)
(declare-fun i () Int)
(assert (ite (= i GEN1) false true))
(push 1)
(assert (= i GEN2))
(assert (= BAV3 (= i GEN1)))
(assert (= BAV4 (= i GEN2)))
(check-sat)